qbf_easy_train/easy_2167_SAT.qdimacs
p cnf 24 58
a 22 6 0
e 1 2 3 4 5 7 8 9 10 11 12 13 14 15 16 17 18 19 20 21 23 24 0
-4 2 0
-4 3 0
-2 -3 4 0
4 2 -5 0
-4 -2 -5 0
4 -2 5 0
-4 2 5 0
6 -1 0
6 -5 0
1 5 -6 0
-9 8 0
-9 7 0
-8 -7 9 0
7 -9 -10 0
-7 9 -10 0
7 9 10 0
-7 -9 10 0
-12 -1 0
-12 11 0
1 -11 12 0
10 -12 -13 0
-10 12 -13 0
10 12 13 0
-10 -12 13 0
14 6 0
14 -13 0
-6 13 -14 0
15 4 0
15 8 0
-4 -8 -15 0
-17 16 0
-17 9 0
-16 -9 17 0
18 15 0
18 -17 0
-15 17 -18 0
-19 8 0
-19 3 0
-8 -3 19 0
-20 -18 0
-20 19 0
18 -19 20 0
11 21 -22 0
-11 -21 -22 0
11 -21 22 0
-11 21 22 0
-23 -20 0
-23 -22 0
20 22 23 0
24 -14 0
24 23 0
14 -23 -24 0
4 -1 -10 -15 3 0
-14 -7 -4 8 19 -6 0
16 24 10 2 0
-9 13 3 4 -12 -10 0
11 5 17 2 -21 0
24 0
