sat_easy_train/easy_2167_SAT.dimacs
p cnf 138 469
3 -1 0
3 -2 0
1 2 -3 0
5 3 0
5 4 0
-3 -4 -5 0
7 -1 0
7 6 0
1 -6 -7 0
9 2 0
9 8 0
-2 -8 -9 0
12 -10 0
12 11 0
10 -11 -12 0
12 -8 -13 0
-12 8 -13 0
12 8 13 0
-12 -8 13 0
14 13 0
14 6 0
-13 -6 -14 0
-15 9 0
-15 14 0
-9 -14 15 0
-16 -7 0
-16 15 0
7 -15 16 0
-17 16 0
-17 6 0
-16 -6 17 0
18 -7 0
18 -17 0
7 17 -18 0
-19 5 0
-19 18 0
-5 -18 19 0
-20 -21 -22 0
20 21 -22 0
-20 21 22 0
20 -21 22 0
23 10 0
23 10 0
-10 -23 0
-23 -24 -25 0
23 24 -25 0
-23 24 25 0
23 -24 25 0
26 25 0
26 -2 0
-25 2 -26 0
-27 -26 0
-27 13 0
26 -13 27 0
-28 -6 0
-28 -2 0
6 2 28 0
26 -28 -29 0
-26 28 -29 0
26 28 29 0
-26 -28 29 0
30 -27 0
30 29 0
27 -29 -30 0
-31 15 0
-31 -29 0
-15 29 31 0
31 -24 -32 0
-31 24 -32 0
31 24 32 0
-31 -24 32 0
-34 33 0
-34 4 0
-33 -4 34 0
-35 32 0
-35 -34 0
-32 34 35 0
-36 -30 0
-36 35 0
30 -35 36 0
37 -22 0
37 -36 0
22 36 -37 0
39 -20 0
39 38 0
20 -38 -39 0
-21 -33 -40 0
21 33 -40 0
-21 33 40 0
21 -33 40 0
-33 -40 -41 0
33 40 -41 0
-33 40 41 0
33 -40 41 0
42 -39 0
42 41 0
39 -41 -42 0
-43 29 0
-43 21 0
-29 -21 43 0
44 -43 0
44 7 0
43 -7 -44 0
45 1 0
45 -11 0
-1 11 -45 0
46 -2 0
46 -45 0
2 45 -46 0
-46 16 -47 0
46 -16 -47 0
-46 -16 47 0
46 16 47 0
48 -44 0
48 47 0
44 -47 -48 0
-38 -33 -49 0
38 33 -49 0
-38 33 49 0
38 -33 49 0
-48 -49 -50 0
48 49 -50 0
-48 49 50 0
48 -49 50 0
-51 42 0
-51 -50 0
-42 50 51 0
-37 -51 -52 0
37 51 -52 0
-37 51 52 0
37 -51 52 0
40 -20 -53 0
-40 20 -53 0
40 20 53 0
-40 -20 53 0
-53 3 -54 0
53 -3 -54 0
-53 -3 54 0
53 3 54 0
-55 6 0
-55 -4 0
-6 4 55 0
-57 55 0
-57 56 0
-55 -56 57 0
-58 -8 0
-58 -45 0
8 45 58 0
23 8 -59 0
-23 -8 -59 0
23 -8 59 0
-23 8 59 0
60 58 0
60 -59 0
-58 59 -60 0
-56 60 -61 0
56 -60 -61 0
-56 -60 61 0
56 60 61 0
-62 58 0
-62 -61 0
-58 61 62 0
-63 57 0
-63 -62 0
-57 62 63 0
-64 54 0
-64 63 0
-54 -63 64 0
-65 -8 0
-65 25 0
8 -25 65 0
66 62 0
66 -65 0
-62 65 -66 0
67 -64 0
67 -66 0
64 66 -67 0
69 68 0
69 -38 0
-68 38 -69 0
70 67 0
70 69 0
-67 -69 -70 0
-52 70 -71 0
52 -70 -71 0
-52 -70 71 0
52 70 71 0
72 20 0
72 26 0
-20 -26 -72 0
-74 20 0
-74 73 0
-20 -73 74 0
75 74 0
75 29 0
-74 -29 -75 0
-76 72 0
-76 75 0
-72 -75 76 0
1 12 -77 0
-1 -12 -77 0
1 -12 77 0
-1 12 77 0
78 77 0
78 56 0
-77 -56 -78 0
-8 78 -79 0
8 -78 -79 0
-8 -78 79 0
8 78 79 0
-12 -79 -80 0
12 79 -80 0
-12 79 80 0
12 -79 80 0
81 -76 0
81 -80 0
76 80 -81 0
-71 81 -82 0
71 -81 -82 0
-71 -81 82 0
71 81 82 0
-83 11 0
-83 -20 0
-11 20 83 0
-85 -55 0
-85 -13 0
55 13 85 0
84 -85 -86 0
-84 85 -86 0
84 85 86 0
-84 -85 86 0
14 -10 -87 0
-14 10 -87 0
14 10 87 0
-14 -10 87 0
88 87 0
88 11 0
-87 -11 -88 0
-89 -32 0
-89 -4 0
32 4 89 0
-90 88 0
-90 89 0
-88 -89 90 0
-91 -86 0
-91 -90 0
86 90 91 0
92 -83 0
92 -91 0
83 91 -92 0
82 -92 -93 0
-82 92 -93 0
82 92 93 0
-82 -92 93 0
-73 -53 -94 0
73 53 -94 0
-73 53 94 0
73 -53 94 0
-40 -3 -95 0
40 3 -95 0
-40 3 95 0
40 -3 95 0
96 -95 0
96 -14 0
95 14 -96 0
97 -94 0
97 96 0
94 -96 -97 0
-98 -93 0
-98 97 0
93 -97 98 0
-99 -19 0
-99 -98 0
19 98 99 0
21 -33 -100 0
-21 33 -100 0
21 33 100 0
-21 -33 100 0
101 -12 0
101 -20 0
12 20 -101 0
-102 -101 0
-102 46 0
101 -46 102 0
103 95 0
103 3 0
-95 -3 -103 0
11 -58 -104 0
-11 58 -104 0
11 58 104 0
-11 -58 104 0
105 103 0
105 104 0
-103 -104 -105 0
106 -102 0
106 -105 0
102 105 -106 0
107 100 0
107 106 0
-100 -106 -107 0
108 45 0
108 -101 0
-45 101 -108 0
-109 -14 0
-109 24 0
14 -24 109 0
-108 -109 -110 0
108 109 -110 0
-108 109 110 0
108 -109 110 0
-95 8 -111 0
95 -8 -111 0
-95 -8 111 0
95 8 111 0
-73 -26 -112 0
73 26 -112 0
-73 26 112 0
73 -26 112 0
-113 111 0
-113 -112 0
-111 112 113 0
78 113 -114 0
-78 -113 -114 0
78 -113 114 0
-78 113 114 0
43 23 -115 0
-43 -23 -115 0
43 -23 115 0
-43 23 115 0
61 56 -116 0
-61 -56 -116 0
61 -56 116 0
-61 56 116 0
-116 32 -117 0
116 -32 -117 0
-116 -32 117 0
116 32 117 0
-118 117 0
-118 -65 0
-117 65 118 0
-119 -115 0
-119 -118 0
115 118 119 0
120 114 0
120 -119 0
-114 119 -120 0
58 -33 -121 0
-58 33 -121 0
58 33 121 0
-58 -33 121 0
-122 2 0
-122 1 0
-2 -1 122 0
123 121 0
123 122 0
-121 -122 -123 0
-123 -21 -124 0
123 21 -124 0
-123 21 124 0
123 -21 124 0
-11 -2 -125 0
11 2 -125 0
-11 2 125 0
11 -2 125 0
-126 -124 0
-126 -125 0
124 125 126 0
-127 -117 0
-127 31 0
117 -31 127 0
128 -127 0
128 -101 0
127 101 -128 0
-26 112 -129 0
26 -112 -129 0
-26 -112 129 0
26 112 129 0
-130 128 0
-130 129 0
-128 -129 130 0
-131 -62 0
-131 -53 0
62 53 131 0
-132 16 0
-132 -131 0
-16 131 132 0
-130 -132 -133 0
130 132 -133 0
-130 132 133 0
130 -132 133 0
134 126 0
134 133 0
-126 -133 -134 0
-120 -134 -135 0
120 134 -135 0
-120 134 135 0
120 -134 135 0
136 -110 0
136 135 0
110 -135 -136 0
-107 136 -137 0
107 -136 -137 0
-107 -136 137 0
107 136 137 0
138 99 0
138 137 0
-99 -137 -138 0
95 -123 13 -80 -96 -99 0
-55 -46 -100 0
54 85 71 -68 126 -75 0
117 137 0
64 -129 44 -131 -113 117 0
-58 81 -47 3 -31 0
-136 124 3 -34 -36 38 0
-85 -77 103 -35 -40 -102 0
-73 -111 36 88 130 0
-132 17 125 31 0
90 -23 0
-37 120 0
-117 -75 73 0
22 102 -14 45 131 -8 0
-17 -122 0
-112 -95 57 -115 -8 0
-11 89 -28 4 67 0
28 -18 82 -121 0
58 81 57 68 -124 0
86 -36 -28 22 92 0
-106 -14 -25 103 -52 0
-131 3 0
12 47 0
-10 -130 -133 0
85 1 -94 130 0
-32 -72 87 -70 0
94 -74 118 -58 -70 -99 0
72 102 -128 -48 -21 95 0
-100 -81 56 0
-56 39 80 0
50 -71 -45 -109 81 116 0
-112 71 -14 0
72 33 82 -81 138 0
11 95 0
60 -10 0
69 42 0
-105 -116 -129 0
98 -87 0
-106 -108 47 0
-113 86 123 57 100 -21 0
-13 -128 131 0
97 -16 -93 71 3 -98 0
49 -11 0
-27 64 -83 0
-136 73 80 0
-50 -112 0
118 101 -81 -8 82 0
-41 70 15 98 37 0
-45 115 -125 -4 19 -123 0
-2 92 79 -28 0
-76 -86 62 0
57 -71 115 82 131 0
-64 138 -129 0
-6 -111 77 134 0
37 -42 10 -23 116 27 0
-60 50 87 19 0
-70 -38 23 26 0
-94 123 -87 -41 0
-99 -22 -15 13 0
115 6 -26 90 50 127 0
67 -46 134 96 71 0
138 0
